nodes = 27;
edges = 50;
starts = [1, 1, 1, 2, 3, 3, 3, 4, 4, 5, 5, 5, 6, 6, 7, 7, 8, 9, 10, 11, 12, 12, 12, 13, 13, 14, 14, 14, 15, 15, 15, 16, 16, 17, 17, 18, 19, 20, 20, 20, 21, 22, 22, 23, 24, 25, 26, 26, 27, 27];
ends = [6, 12, 26, 16, 9, 12, 13, 5, 14, 4, 15, 20, 1, 24, 10, 22, 15, 3, 2, 17, 3, 7, 18, 3, 21, 4, 20, 26, 5, 8, 20, 2, 22, 7, 18, 19, 11, 5, 14, 15, 13, 6, 12, 25, 23, 27, 1, 14, 1, 24];
weights = [1, 1, 1, 1, 1, 1, 1, 1, 1, 1, 1, 1, 1, 1, 1, 1, 1, 1, 1, 1, 1, 1, 1, 1, 1, 1, 1, 1, 1, 1, 1, 1, 1, 1, 1, 1, 1, 1, 1, 1, 1, 1, 1, 1, 1, 1, 1, 1, 1, 1];
start = 5;
end= 21;
p = [0, 0, 0, 3, 0, 0, 0, 0, 1, 0, 0, 4, 0, 0, 0, 1, 0, 0, 0, 0, 0, 0, 0, 0, 0, 0, 4];
